param n := 8;
param m := 5;

set F := (1,1) (2,2) (3,3) (4,4) (5,2) (6,1) (7,4) (8,5);

set A := (1,2) (2,3) (3,4) (5,6) (6,7) (7,8);

set E := (1,6) (6,1) (2,5) (5,2) (4,7) (7,4);

param nk :=
1	2
2	2
3	1
4	2
5	1
;

param p :=
1	5
2	3
3	4
4	7
5	6
6	5
7	3
8	4
;

param BM := 50;